356,457
521,325
609,354
698,382
702,427
609,458
593,420
575,512
311,526
356,457
254,189
436,-75
613,273
593,285
695,318
844,86
1194,240
1011,406
966,314
831,406
695,318
681,346
382,818
804,575
710,410
831,406
966,314
698,382
702,385
609,354
633,371
